// Objective Function
max: 4x1+6.5x2+5.9x3+5.4x4+5.15x5+10x6+8.4x7+6.25x8;

// Constraints
40x1 + 50x2 + 80x3 + 60x4 + 45x5 + 60x6 + 30x7 + 25x8 <=2500000;
40x1 + 50x2 + 80x3 <=1000000;
60x4 + 45x5 + 60x6 <=1000000;
30x7 + 25x8 <=1000000;

// Invest at least 40 percent 
40x1 >=100000;
50x2 >=100000;
80x3 >=100000;
60x4 >=100000;
45x5 >=100000;
60x6 >=100000;
30x7 >=100000;
25x8 >=100000;


int x1, x2, x3, x4, x5, x6, x7, x8;

//x1=1000n1;
//x2=1000n2;
//x3=1000n3;
//x4=1000n4;
//x5=1000n5;
//x6=1000n6;
//x7=1000n7;
//x8=1000n8;
